
******************************************************************************
This program contains Ipopt, a library for large-scale nonlinear optimization.
 Ipopt is released as open source code under the Eclipse Public License (EPL).
         For more information visit http://projects.coin-or.org/Ipopt
******************************************************************************

This is Ipopt version 3.12.6, running with linear solver ma57.

Number of nonzeros in equality constraint Jacobian...:        0
Number of nonzeros in inequality constraint Jacobian.:       13
Number of nonzeros in Lagrangian Hessian.............:       12

Total number of variables............................:        5
                     variables with only lower bounds:        0
                variables with lower and upper bounds:        5
                     variables with only upper bounds:        0
Total number of equality constraints.................:        0
Total number of inequality constraints...............:        3
        inequality constraints with only lower bounds:        0
   inequality constraints with lower and upper bounds:        3
        inequality constraints with only upper bounds:        0

iter    objective    inf_pr   inf_du lg(mu)  ||d||  lg(rg) alpha_du alpha_pr  ls
   0 -3.2139044e+04 3.15e+00 9.10e+01  -1.0 0.00e+00    -  0.00e+00 0.00e+00   0
   1 -3.2140097e+04 3.15e+00 9.03e+01  -1.0 3.31e+00    -  5.26e-02 3.26e-03h  1
   2 -3.2116546e+04 2.99e+00 8.69e+01  -1.0 2.63e+01    -  1.14e-02 4.86e-02h  1
   3 -3.2211993e+04 2.87e+00 8.46e+01  -1.0 1.43e+02    -  1.41e-02 4.25e-02f  1
   4 -3.2213100e+04 2.85e+00 6.36e+01  -1.0 6.37e+01    -  8.49e-01 4.69e-03h  1
   5 -3.2212665e+04 2.31e+00 1.70e+01  -1.0 5.53e+01    -  1.11e-01 1.90e-01h  1
   6 -3.2133272e+04 2.15e+00 1.28e+02  -1.0 1.74e+01    -  2.24e-04 6.82e-02h  1
   7 -3.1724271e+04 1.35e+00 7.33e+01  -1.0 1.70e+01    -  6.36e-01 3.71e-01h  1
   8 -3.1702299e+04 1.31e+00 4.92e+01  -1.0 1.07e+01    -  4.61e-01 3.17e-02h  1
   9 -3.1698062e+04 1.30e+00 3.58e+01  -1.0 8.81e+00    -  1.11e-02 5.80e-03h  1
iter    objective    inf_pr   inf_du lg(mu)  ||d||  lg(rg) alpha_du alpha_pr  ls
  10 -3.0637189e+04 0.00e+00 1.84e+02  -1.0 3.08e+00    -  3.60e-03 1.00e+00h  1
  11 -3.0656558e+04 0.00e+00 3.41e+01  -1.0 9.64e-02    -  1.00e+00 7.05e-01f  1
  12 -3.0664093e+04 0.00e+00 6.30e-03  -1.0 2.48e-02    -  1.00e+00 1.00e+00f  1
  13 -3.0665498e+04 0.00e+00 1.02e-06  -2.5 1.05e-02    -  1.00e+00 1.00e+00f  1
  14 -3.0665537e+04 0.00e+00 1.29e-10  -3.8 3.00e-04    -  1.00e+00 1.00e+00f  1
  15 -3.0665539e+04 0.00e+00 1.03e-12  -5.7 1.61e-05    -  1.00e+00 1.00e+00f  1
  16 -3.0665539e+04 0.00e+00 9.02e-15  -8.6 2.00e-07    -  1.00e+00 1.00e+00f  1

Number of Iterations....: 16

                                   (scaled)                 (unscaled)
Objective...............:  -1.0599024908934620e+04   -3.0665539128826309e+04
Dual infeasibility......:   9.0220475061710849e-15    2.6102962602663491e-14
Constraint violation....:   0.0000000000000000e+00    0.0000000000000000e+00
Complementarity.........:   2.5059660559771750e-09    7.2503650859711956e-09
Overall NLP error.......:   2.5059660559771750e-09    7.2503650859711956e-09


Number of objective function evaluations             = 17
Number of objective gradient evaluations             = 17
Number of equality constraint evaluations            = 0
Number of inequality constraint evaluations          = 17
Number of equality constraint Jacobian evaluations   = 0
Number of inequality constraint Jacobian evaluations = 17
Number of Lagrangian Hessian evaluations             = 16
Total CPU secs in IPOPT (w/o function evaluations)   =      0.007
Total CPU secs in NLP function evaluations           =      0.000

EXIT: Optimal Solution Found.

************************ CUTEst statistics ************************


 Package used            :  IPOPT
 Problem                 :  HS83      
 # variables             =               5
 # constraints           =               3
 # objective functions   =        0.3500000E+02
 # objective gradients   =        0.1800000E+02
 # objective Hessians    =        0.1700000E+02
 # Hessian-vector prdct  =        0.0000000E+00
 # constraints functions =        0.3600000E+02
 # constraints gradients =        0.1900000E+02
 # constraints Hessians  =        0.1700000E+02
 Exit code               =               0
 Final f                 =  -0.3066554E+05
 Set up time             =            0.00 seconds
 Solve time              =            0.02 seconds


******************************************************************

System Time =       0.0060000001 s.
